p cnf 256 979
-145 -146 0
-147 -148 0
-1 145 0
-1 147 0
-2 145 0
-2 148 0
-3 146 0
-3 147 0
-4 146 0
-4 148 0
-1 25 0
-1 5 0
-2 26 0
-2 6 0
-3 27 0
-3 7 0
-4 28 0
-4 8 0
-149 -150 0
-151 -152 0
-5 149 0
-5 151 0
-6 149 0
-6 152 0
-7 150 0
-7 151 0
-8 150 0
-8 152 0
-5 1 9 0
-5 1 29 0
-5 9 29 0
-6 2 10 0
-6 2 30 0
-6 10 30 0
-7 3 11 0
-7 3 31 0
-7 11 31 0
-8 4 12 0
-8 4 32 0
-8 12 32 0
-5 -1 -9 -29 0
-6 -2 -10 -30 0
-7 -3 -11 -31 0
-8 -4 -12 -32 0
-153 -154 0
-155 -156 0
-9 153 0
-9 155 0
-10 153 0
-10 156 0
-11 154 0
-11 155 0
-12 154 0
-12 156 0
-9 5 13 0
-9 5 33 0
-9 13 33 0
-10 6 14 0
-10 6 34 0
-10 14 34 0
-11 7 15 0
-11 7 35 0
-11 15 35 0
-12 8 16 0
-12 8 36 0
-12 16 36 0
-9 -5 -13 -33 0
-10 -6 -14 -34 0
-11 -7 -15 -35 0
-12 -8 -16 -36 0
-157 -158 0
-159 -160 0
-13 157 0
-13 159 0
-14 157 0
-14 160 0
-15 158 0
-15 159 0
-16 158 0
-16 160 0
-13 9 17 0
-13 9 37 0
-13 17 37 0
-14 10 18 0
-14 10 38 0
-14 18 38 0
-15 11 19 0
-15 11 39 0
-15 19 39 0
-16 12 20 0
-16 12 40 0
-16 20 40 0
-13 -9 -17 -37 0
-14 -10 -18 -38 0
-15 -11 -19 -39 0
-16 -12 -20 -40 0
-161 -162 0
-163 -164 0
-17 161 0
-17 163 0
-18 161 0
-18 164 0
-19 162 0
-19 163 0
-20 162 0
-20 164 0
-17 13 21 0
-17 13 41 0
-17 21 41 0
-18 14 22 0
-18 14 42 0
-18 22 42 0
-19 15 23 0
-19 15 43 0
-19 23 43 0
-20 16 24 0
-20 16 44 0
-20 24 44 0
-17 -13 -21 -41 0
-18 -14 -22 -42 0
-19 -15 -23 -43 0
-20 -16 -24 -44 0
21 0
-22 0
-23 0
-24 0
45 17 0
-45 -17 0
25 0
-26 0
-27 0
-28 0
49 29 1 0
-49 -29 0
-49 -1 0
-29 -1 0
-165 -166 0
-167 -168 0
-29 165 0
-29 167 0
-30 165 0
-30 168 0
-31 166 0
-31 167 0
-32 166 0
-32 168 0
-29 53 33 5 0
-29 53 33 25 0
-29 53 5 25 0
-29 33 5 25 0
-30 54 34 6 0
-30 54 34 26 0
-30 54 6 26 0
-30 34 6 26 0
-31 55 35 7 0
-31 55 35 27 0
-31 55 7 27 0
-31 35 7 27 0
-32 56 36 8 0
-32 56 36 28 0
-32 56 8 28 0
-32 36 8 28 0
-29 -53 -33 -5 0
-29 -53 -33 -25 0
-29 -53 -5 -25 0
-29 -33 -5 -25 0
-30 -54 -34 -6 0
-30 -54 -34 -26 0
-30 -54 -6 -26 0
-30 -34 -6 -26 0
-31 -55 -35 -7 0
-31 -55 -35 -27 0
-31 -55 -7 -27 0
-31 -35 -7 -27 0
-32 -56 -36 -8 0
-32 -56 -36 -28 0
-32 -56 -8 -28 0
-32 -36 -8 -28 0
-169 -170 0
-171 -172 0
-33 169 0
-33 171 0
-34 169 0
-34 172 0
-35 170 0
-35 171 0
-36 170 0
-36 172 0
-33 57 37 9 0
-33 57 37 29 0
-33 57 9 29 0
-33 37 9 29 0
-34 58 38 10 0
-34 58 38 30 0
-34 58 10 30 0
-34 38 10 30 0
-35 59 39 11 0
-35 59 39 31 0
-35 59 11 31 0
-35 39 11 31 0
-36 60 40 12 0
-36 60 40 32 0
-36 60 12 32 0
-36 40 12 32 0
-33 -57 -37 -9 0
-33 -57 -37 -29 0
-33 -57 -9 -29 0
-33 -37 -9 -29 0
-34 -58 -38 -10 0
-34 -58 -38 -30 0
-34 -58 -10 -30 0
-34 -38 -10 -30 0
-35 -59 -39 -11 0
-35 -59 -39 -31 0
-35 -59 -11 -31 0
-35 -39 -11 -31 0
-36 -60 -40 -12 0
-36 -60 -40 -32 0
-36 -60 -12 -32 0
-36 -40 -12 -32 0
-173 -174 0
-175 -176 0
-37 173 0
-37 175 0
-38 173 0
-38 176 0
-39 174 0
-39 175 0
-40 174 0
-40 176 0
-37 61 41 13 0
-37 61 41 33 0
-37 61 13 33 0
-37 41 13 33 0
-38 62 42 14 0
-38 62 42 34 0
-38 62 14 34 0
-38 42 14 34 0
-39 63 43 15 0
-39 63 43 35 0
-39 63 15 35 0
-39 43 15 35 0
-40 64 44 16 0
-40 64 44 36 0
-40 64 16 36 0
-40 44 16 36 0
-37 -61 -41 -13 0
-37 -61 -41 -33 0
-37 -61 -13 -33 0
-37 -41 -13 -33 0
-38 -62 -42 -14 0
-38 -62 -42 -34 0
-38 -62 -14 -34 0
-38 -42 -14 -34 0
-39 -63 -43 -15 0
-39 -63 -43 -35 0
-39 -63 -15 -35 0
-39 -43 -15 -35 0
-40 -64 -44 -16 0
-40 -64 -44 -36 0
-40 -64 -16 -36 0
-40 -44 -16 -36 0
-177 -178 0
-179 -180 0
-41 177 0
-41 179 0
-42 177 0
-42 180 0
-43 178 0
-43 179 0
-44 178 0
-44 180 0
-41 65 45 17 0
-41 65 45 37 0
-41 65 17 37 0
-41 45 17 37 0
-42 66 46 18 0
-42 66 46 38 0
-42 66 18 38 0
-42 46 18 38 0
-43 67 47 19 0
-43 67 47 39 0
-43 67 19 39 0
-43 47 19 39 0
-44 68 48 20 0
-44 68 48 40 0
-44 68 20 40 0
-44 48 20 40 0
-41 -65 -45 -17 0
-41 -65 -45 -37 0
-41 -65 -17 -37 0
-41 -45 -17 -37 0
-42 -66 -46 -18 0
-42 -66 -46 -38 0
-42 -66 -18 -38 0
-42 -46 -18 -38 0
-43 -67 -47 -19 0
-43 -67 -47 -39 0
-43 -67 -19 -39 0
-43 -47 -19 -39 0
-44 -68 -48 -20 0
-44 -68 -48 -40 0
-44 -68 -20 -40 0
-44 -48 -20 -40 0
-181 -182 0
-183 -184 0
-45 181 0
-45 183 0
-46 181 0
-46 184 0
-47 182 0
-47 183 0
-48 182 0
-48 184 0
-45 69 41 0
-45 69 21 0
-45 41 21 0
-46 70 42 0
-46 70 22 0
-46 42 22 0
-47 71 43 0
-47 71 23 0
-47 43 23 0
-48 72 44 0
-48 72 24 0
-48 44 24 0
-45 -69 -41 -21 0
-46 -70 -42 -22 0
-47 -71 -43 -23 0
-48 -72 -44 -24 0
-185 -186 0
-187 -188 0
-49 185 0
-49 187 0
-50 185 0
-50 188 0
-51 186 0
-51 187 0
-52 186 0
-52 188 0
-49 73 53 0
-49 73 25 0
-49 53 25 0
-50 74 54 0
-50 74 26 0
-50 54 26 0
-51 75 55 0
-51 75 27 0
-51 55 27 0
-52 76 56 0
-52 76 28 0
-52 56 28 0
-49 -73 -53 -25 0
-50 -74 -54 -26 0
-51 -75 -55 -27 0
-52 -76 -56 -28 0
-189 -190 0
-191 -192 0
-53 189 0
-53 191 0
-54 189 0
-54 192 0
-55 190 0
-55 191 0
-56 190 0
-56 192 0
-53 77 57 29 0
-53 77 57 49 0
-53 77 29 49 0
-53 57 29 49 0
-54 78 58 30 0
-54 78 58 50 0
-54 78 30 50 0
-54 58 30 50 0
-55 79 59 31 0
-55 79 59 51 0
-55 79 31 51 0
-55 59 31 51 0
-56 80 60 32 0
-56 80 60 52 0
-56 80 32 52 0
-56 60 32 52 0
-53 -77 -57 -29 0
-53 -77 -57 -49 0
-53 -77 -29 -49 0
-53 -57 -29 -49 0
-54 -78 -58 -30 0
-54 -78 -58 -50 0
-54 -78 -30 -50 0
-54 -58 -30 -50 0
-55 -79 -59 -31 0
-55 -79 -59 -51 0
-55 -79 -31 -51 0
-55 -59 -31 -51 0
-56 -80 -60 -32 0
-56 -80 -60 -52 0
-56 -80 -32 -52 0
-56 -60 -32 -52 0
-193 -194 0
-195 -196 0
-57 193 0
-57 195 0
-58 193 0
-58 196 0
-59 194 0
-59 195 0
-60 194 0
-60 196 0
-57 81 61 33 0
-57 81 61 53 0
-57 81 33 53 0
-57 61 33 53 0
-58 82 62 34 0
-58 82 62 54 0
-58 82 34 54 0
-58 62 34 54 0
-59 83 63 35 0
-59 83 63 55 0
-59 83 35 55 0
-59 63 35 55 0
-60 84 64 36 0
-60 84 64 56 0
-60 84 36 56 0
-60 64 36 56 0
-57 -81 -61 -33 0
-57 -81 -61 -53 0
-57 -81 -33 -53 0
-57 -61 -33 -53 0
-58 -82 -62 -34 0
-58 -82 -62 -54 0
-58 -82 -34 -54 0
-58 -62 -34 -54 0
-59 -83 -63 -35 0
-59 -83 -63 -55 0
-59 -83 -35 -55 0
-59 -63 -35 -55 0
-60 -84 -64 -36 0
-60 -84 -64 -56 0
-60 -84 -36 -56 0
-60 -64 -36 -56 0
-197 -198 0
-199 -200 0
-61 197 0
-61 199 0
-62 197 0
-62 200 0
-63 198 0
-63 199 0
-64 198 0
-64 200 0
-61 85 65 37 0
-61 85 65 57 0
-61 85 37 57 0
-61 65 37 57 0
-62 86 66 38 0
-62 86 66 58 0
-62 86 38 58 0
-62 66 38 58 0
-63 87 67 39 0
-63 87 67 59 0
-63 87 39 59 0
-63 67 39 59 0
-64 88 68 40 0
-64 88 68 60 0
-64 88 40 60 0
-64 68 40 60 0
-61 -85 -65 -37 0
-61 -85 -65 -57 0
-61 -85 -37 -57 0
-61 -65 -37 -57 0
-62 -86 -66 -38 0
-62 -86 -66 -58 0
-62 -86 -38 -58 0
-62 -66 -38 -58 0
-63 -87 -67 -39 0
-63 -87 -67 -59 0
-63 -87 -39 -59 0
-63 -67 -39 -59 0
-64 -88 -68 -40 0
-64 -88 -68 -60 0
-64 -88 -40 -60 0
-64 -68 -40 -60 0
-201 -202 0
-203 -204 0
-65 201 0
-65 203 0
-66 201 0
-66 204 0
-67 202 0
-67 203 0
-68 202 0
-68 204 0
-65 89 69 41 0
-65 89 69 61 0
-65 89 41 61 0
-65 69 41 61 0
-66 90 70 42 0
-66 90 70 62 0
-66 90 42 62 0
-66 70 42 62 0
-67 91 71 43 0
-67 91 71 63 0
-67 91 43 63 0
-67 71 43 63 0
-68 92 72 44 0
-68 92 72 64 0
-68 92 44 64 0
-68 72 44 64 0
-65 -89 -69 -41 0
-65 -89 -69 -61 0
-65 -89 -41 -61 0
-65 -69 -41 -61 0
-66 -90 -70 -42 0
-66 -90 -70 -62 0
-66 -90 -42 -62 0
-66 -70 -42 -62 0
-67 -91 -71 -43 0
-67 -91 -71 -63 0
-67 -91 -43 -63 0
-67 -71 -43 -63 0
-68 -92 -72 -44 0
-68 -92 -72 -64 0
-68 -92 -44 -64 0
-68 -72 -44 -64 0
-205 -206 0
-207 -208 0
-69 205 0
-69 207 0
-70 205 0
-70 208 0
-71 206 0
-71 207 0
-72 206 0
-72 208 0
-69 93 65 0
-69 93 45 0
-69 65 45 0
-70 94 66 0
-70 94 46 0
-70 66 46 0
-71 95 67 0
-71 95 47 0
-71 67 47 0
-72 96 68 0
-72 96 48 0
-72 68 48 0
-69 -93 -65 -45 0
-70 -94 -66 -46 0
-71 -95 -67 -47 0
-72 -96 -68 -48 0
74 0
-73 0
-75 0
-76 0
98 78 50 0
-98 -78 0
-98 -50 0
-78 -50 0
-209 -210 0
-211 -212 0
-77 209 0
-77 211 0
-78 209 0
-78 212 0
-79 210 0
-79 211 0
-80 210 0
-80 212 0
-77 101 81 53 0
-77 101 81 73 0
-77 101 53 73 0
-77 81 53 73 0
-78 102 82 54 0
-78 102 82 74 0
-78 102 54 74 0
-78 82 54 74 0
-79 103 83 55 0
-79 103 83 75 0
-79 103 55 75 0
-79 83 55 75 0
-80 104 84 56 0
-80 104 84 76 0
-80 104 56 76 0
-80 84 56 76 0
-77 -101 -81 -53 0
-77 -101 -81 -73 0
-77 -101 -53 -73 0
-77 -81 -53 -73 0
-78 -102 -82 -54 0
-78 -102 -82 -74 0
-78 -102 -54 -74 0
-78 -82 -54 -74 0
-79 -103 -83 -55 0
-79 -103 -83 -75 0
-79 -103 -55 -75 0
-79 -83 -55 -75 0
-80 -104 -84 -56 0
-80 -104 -84 -76 0
-80 -104 -56 -76 0
-80 -84 -56 -76 0
-213 -214 0
-215 -216 0
-81 213 0
-81 215 0
-82 213 0
-82 216 0
-83 214 0
-83 215 0
-84 214 0
-84 216 0
-81 105 85 57 0
-81 105 85 77 0
-81 105 57 77 0
-81 85 57 77 0
-82 106 86 58 0
-82 106 86 78 0
-82 106 58 78 0
-82 86 58 78 0
-83 107 87 59 0
-83 107 87 79 0
-83 107 59 79 0
-83 87 59 79 0
-84 108 88 60 0
-84 108 88 80 0
-84 108 60 80 0
-84 88 60 80 0
-81 -105 -85 -57 0
-81 -105 -85 -77 0
-81 -105 -57 -77 0
-81 -85 -57 -77 0
-82 -106 -86 -58 0
-82 -106 -86 -78 0
-82 -106 -58 -78 0
-82 -86 -58 -78 0
-83 -107 -87 -59 0
-83 -107 -87 -79 0
-83 -107 -59 -79 0
-83 -87 -59 -79 0
-84 -108 -88 -60 0
-84 -108 -88 -80 0
-84 -108 -60 -80 0
-84 -88 -60 -80 0
86 0
-85 0
-87 0
-88 0
110 90 62 82 0
-110 -90 0
-110 -62 0
-110 -82 0
-90 -62 0
-90 -82 0
-62 -82 0
-217 -218 0
-219 -220 0
-89 217 0
-89 219 0
-90 217 0
-90 220 0
-91 218 0
-91 219 0
-92 218 0
-92 220 0
-89 113 93 65 0
-89 113 93 85 0
-89 113 65 85 0
-89 93 65 85 0
-90 114 94 66 0
-90 114 94 86 0
-90 114 66 86 0
-90 94 66 86 0
-91 115 95 67 0
-91 115 95 87 0
-91 115 67 87 0
-91 95 67 87 0
-92 116 96 68 0
-92 116 96 88 0
-92 116 68 88 0
-92 96 68 88 0
-89 -113 -93 -65 0
-89 -113 -93 -85 0
-89 -113 -65 -85 0
-89 -93 -65 -85 0
-90 -114 -94 -66 0
-90 -114 -94 -86 0
-90 -114 -66 -86 0
-90 -94 -66 -86 0
-91 -115 -95 -67 0
-91 -115 -95 -87 0
-91 -115 -67 -87 0
-91 -95 -67 -87 0
-92 -116 -96 -68 0
-92 -116 -96 -88 0
-92 -116 -68 -88 0
-92 -96 -68 -88 0
-221 -222 0
-223 -224 0
-93 221 0
-93 223 0
-94 221 0
-94 224 0
-95 222 0
-95 223 0
-96 222 0
-96 224 0
-93 117 89 0
-93 117 69 0
-93 89 69 0
-94 118 90 0
-94 118 70 0
-94 90 70 0
-95 119 91 0
-95 119 71 0
-95 91 71 0
-96 120 92 0
-96 120 72 0
-96 92 72 0
-93 -117 -89 -69 0
-94 -118 -90 -70 0
-95 -119 -91 -71 0
-96 -120 -92 -72 0
100 0
-97 0
-98 0
-99 0
124 104 76 0
-124 -104 0
-124 -76 0
-104 -76 0
103 0
-101 0
-102 0
-104 0
127 107 79 99 0
-127 -107 0
-127 -79 0
-127 -99 0
-107 -79 0
-107 -99 0
-79 -99 0
108 0
-105 0
-106 0
-107 0
132 112 84 104 0
-132 -112 0
-132 -84 0
-132 -104 0
-112 -84 0
-112 -104 0
-84 -104 0
-225 -226 0
-227 -228 0
-109 225 0
-109 227 0
-110 225 0
-110 228 0
-111 226 0
-111 227 0
-112 226 0
-112 228 0
-109 133 113 85 0
-109 133 113 105 0
-109 133 85 105 0
-109 113 85 105 0
-110 134 114 86 0
-110 134 114 106 0
-110 134 86 106 0
-110 114 86 106 0
-111 135 115 87 0
-111 135 115 107 0
-111 135 87 107 0
-111 115 87 107 0
-112 136 116 88 0
-112 136 116 108 0
-112 136 88 108 0
-112 116 88 108 0
-109 -133 -113 -85 0
-109 -133 -113 -105 0
-109 -133 -85 -105 0
-109 -113 -85 -105 0
-110 -134 -114 -86 0
-110 -134 -114 -106 0
-110 -134 -86 -106 0
-110 -114 -86 -106 0
-111 -135 -115 -87 0
-111 -135 -115 -107 0
-111 -135 -87 -107 0
-111 -115 -87 -107 0
-112 -136 -116 -88 0
-112 -136 -116 -108 0
-112 -136 -88 -108 0
-112 -116 -88 -108 0
115 0
-113 0
-114 0
-116 0
139 119 91 111 0
-139 -119 0
-139 -91 0
-139 -111 0
-119 -91 0
-119 -111 0
-91 -111 0
-229 -230 0
-231 -232 0
-117 229 0
-117 231 0
-118 229 0
-118 232 0
-119 230 0
-119 231 0
-120 230 0
-120 232 0
-117 141 113 0
-117 141 93 0
-117 113 93 0
-118 142 114 0
-118 142 94 0
-118 114 94 0
-119 143 115 0
-119 143 95 0
-119 115 95 0
-120 144 116 0
-120 144 96 0
-120 116 96 0
-117 -141 -113 -93 0
-118 -142 -114 -94 0
-119 -143 -115 -95 0
-120 -144 -116 -96 0
-233 -234 0
-235 -236 0
-121 233 0
-121 235 0
-122 233 0
-122 236 0
-123 234 0
-123 235 0
-124 234 0
-124 236 0
-121 97 0
-121 125 0
-122 98 0
-122 126 0
-123 99 0
-123 127 0
-124 100 0
-124 128 0
-237 -238 0
-239 -240 0
-125 237 0
-125 239 0
-126 237 0
-126 240 0
-127 238 0
-127 239 0
-128 238 0
-128 240 0
-125 101 129 0
-125 101 121 0
-125 129 121 0
-126 102 130 0
-126 102 122 0
-126 130 122 0
-127 103 131 0
-127 103 123 0
-127 131 123 0
-128 104 132 0
-128 104 124 0
-128 132 124 0
-125 -101 -129 -121 0
-126 -102 -130 -122 0
-127 -103 -131 -123 0
-128 -104 -132 -124 0
-241 -242 0
-243 -244 0
-129 241 0
-129 243 0
-130 241 0
-130 244 0
-131 242 0
-131 243 0
-132 242 0
-132 244 0
-129 105 133 0
-129 105 125 0
-129 133 125 0
-130 106 134 0
-130 106 126 0
-130 134 126 0
-131 107 135 0
-131 107 127 0
-131 135 127 0
-132 108 136 0
-132 108 128 0
-132 136 128 0
-129 -105 -133 -125 0
-130 -106 -134 -126 0
-131 -107 -135 -127 0
-132 -108 -136 -128 0
-245 -246 0
-247 -248 0
-133 245 0
-133 247 0
-134 245 0
-134 248 0
-135 246 0
-135 247 0
-136 246 0
-136 248 0
-133 109 137 0
-133 109 129 0
-133 137 129 0
-134 110 138 0
-134 110 130 0
-134 138 130 0
-135 111 139 0
-135 111 131 0
-135 139 131 0
-136 112 140 0
-136 112 132 0
-136 140 132 0
-133 -109 -137 -129 0
-134 -110 -138 -130 0
-135 -111 -139 -131 0
-136 -112 -140 -132 0
-249 -250 0
-251 -252 0
-137 249 0
-137 251 0
-138 249 0
-138 252 0
-139 250 0
-139 251 0
-140 250 0
-140 252 0
-137 113 141 0
-137 113 133 0
-137 141 133 0
-138 114 142 0
-138 114 134 0
-138 142 134 0
-139 115 143 0
-139 115 135 0
-139 143 135 0
-140 116 144 0
-140 116 136 0
-140 144 136 0
-137 -113 -141 -133 0
-138 -114 -142 -134 0
-139 -115 -143 -135 0
-140 -116 -144 -136 0
-253 -254 0
-255 -256 0
-141 253 0
-141 255 0
-142 253 0
-142 256 0
-143 254 0
-143 255 0
-144 254 0
-144 256 0
-141 117 0
-141 137 0
-142 118 0
-142 138 0
-143 119 0
-143 139 0
-144 120 0
-144 140 0
5 29 53 77 125 0
9 33 57 81 129 0
13 37 61 109 133 0
17 41 65 89 137 0
6 30 54 78 126 0
10 34 58 82 130 0
11 35 59 83 131 0
15 39 63 111 135 0
8 32 56 80 128 0